
Log started (V11.0.0) Mon Apr 21 00:24:31 2008

Tried aggregator 1 time.
Reduced MIP has 250 rows, 10001 columns, and 20050 nonzeros.
Presolve time =    0.08 sec.
Clique table members: 200.
MIP emphasis: balance optimality and feasibility.
MIP search method: dynamic search.
Parallel mode: none, using 1 thread.
Root relaxation solution time =    0.45 sec.

        Nodes                                         Cuts/
   Node  Left     Objective  IInf  Best Integer     Best Node    ItCnt     Gap

*     0+    0                        29284.0000      406.7338      733   98.61%
*     0+    0                          422.0000      406.7338      733    3.62%
      0     0      407.0000    80      422.0000      Fract: 6      782    3.55%
      0     0      407.0000    91      422.0000     Covers: 1      854    3.55%
      0     0      407.0000    86      422.0000     Covers: 1      875    3.55%
*     0+    0                          418.0000      407.0000      875    2.63%
      0     0      407.0000    91      418.0000      407.0000      908    2.63%
*     0+    0                          415.0000      407.0000      908    1.93%
      0     2      407.0000    91      415.0000      407.0000      908    1.93%
    100    97      410.0000    66      415.0000      407.0000     4436    1.93%
*   200+  190                          413.0000      407.0000     8727    1.45%
    200   192      410.0000    77      413.0000      407.0000     8727    1.45%
    300   257      412.0000    65      413.0000      407.0000    15477    1.45%
    400   326      408.0000    89      413.0000      407.0000    21473    1.45%
    500   384      410.0938    87      413.0000      407.0000    29625    1.45%
    600   409      411.0000    82      413.0000      409.0000    34622    0.97%
    700   426      412.0000    80      413.0000      409.0000    40753    0.97%
    800   444      409.0000    95      413.0000      409.0000    45595    0.97%
    900   461      410.4933    96      413.0000      409.0000    51469    0.97%
   1000   458      412.0000    64      413.0000      409.0000    56046    0.97%
Elapsed time =  70.73 sec. (tree size =  3.05 MB, solutions = 5)
   1100   513      412.0000    82      413.0000      409.0000    60777    0.97%
   1200   604      410.0000    85      413.0000      409.0000    65372    0.97%
   1300   682      412.0000    69      413.0000      409.0000    74908    0.97%
   1400   774      410.0000    88      413.0000      409.0000    80103    0.97%
   1500   866      411.0000    99      413.0000      409.0000    85003    0.97%
   1600   962      411.0000    69      413.0000      409.0000    88220    0.97%
   1700  1040      410.0000    81      413.0000      409.0000    96143    0.97%
   1800  1133      412.0000   118      413.0000      409.0000   101386    0.97%
   1900  1222      412.0000    77      413.0000      409.0000   108668    0.97%
   2000  1306      412.0000    97      413.0000      409.0000   117038    0.97%
Elapsed time = 108.42 sec. (tree size =  9.21 MB, solutions = 5)
   2100  1392      412.0000    98      413.0000      409.0000   128492    0.97%
   2200  1485      412.0000    97      413.0000      409.0000   133779    0.97%
   2300  1568      410.0000    90      413.0000      409.0000   142594    0.97%
   2400  1661      411.0000    62      413.0000      409.0000   148712    0.97%
   2500  1730      410.0000   115      413.0000      409.0000   168154    0.97%
   2600  1824      411.0000    80      413.0000      409.0000   173044    0.97%
   2700  1902      410.0000   136      413.0000      409.0000   186083    0.97%
   2800  1999      411.0000    81      413.0000      409.0000   189699    0.97%
   2900  2089      410.0000    89      413.0000      409.0000   195147    0.97%
   3000  2187      411.0000    72      413.0000      409.0000   199084    0.97%
Elapsed time = 159.55 sec. (tree size = 16.61 MB, solutions = 5)
   3100  2275      412.0000    63      413.0000      409.0000   210456    0.97%
   3200  2358      410.0000   116      413.0000      409.0000   221873    0.97%
   3300  2454      412.0000    59      413.0000      409.0000   226370    0.97%
   3400  2540      410.0000   125      413.0000      409.0000   242019    0.97%
   3500  2639      411.0000   104      413.0000      409.0000   247076    0.97%
   3600  2716      410.0000   111      413.0000      409.0000   261829    0.97%
   3700  2815      411.0000   106      413.0000      409.0000   264736    0.97%
   3800  2892      412.0000   173      413.0000      409.0000   281906    0.97%
   3900  2965      411.2303   183      413.0000      409.0000   307916    0.97%
   4000  3052      412.0000    82      413.0000      409.0000   329260    0.97%
Elapsed time = 255.98 sec. (tree size = 24.75 MB, solutions = 5)
   4100  3126      411.8508   211      413.0000      409.0000   352545    0.97%
   4200  3211      412.0000    91      413.0000      409.0000   382288    0.97%
   4300  3300      410.0000   137      413.0000      409.0000   409914    0.97%
   4400  3393      411.0000   114      413.0000      409.0000   418260    0.97%
*  4408+ 1995                          412.0000      409.0000   418320    0.73%
   4500  2065      410.0000   131      412.0000      409.0000   456673    0.73%
   4600  2160      411.0000   129      412.0000      409.0000   469009    0.73%
   4700  2193      410.0000    71      412.0000      409.0000   505874    0.73%
   4800  2290      411.0000    95      412.0000      409.0000   512687    0.73%
   4900  2360      411.0000    89      412.0000      409.0000   544250    0.73%
   5000  2401      410.0000    66      412.0000      409.0000   578737    0.73%
Elapsed time = 420.81 sec. (tree size = 20.89 MB, solutions = 6)
   5100  2493      411.0000    67      412.0000      409.0000   586427    0.73%
   5200  2564      410.0000    73      412.0000      409.0000   608925    0.73%
   5300  2664      410.0000   106      412.0000      409.0000   614220    0.73%
   5400  2741      410.0000    94      412.0000      409.0000   636628    0.73%
   5500  2841      411.0000   104      412.0000      409.0000   641542    0.73%
   5600  2876      411.0000   188      412.0000      409.0000   703427    0.73%
   5700  2956      410.0000    98      412.0000      409.1013   731367    0.70%
   5800  3048      410.0000   103      412.0000      409.1013   740947    0.70%
*  5808+ 1792                          411.0000      409.1013   742949    0.46%
   5900  1841      410.0000    76      411.0000      409.1074   798740    0.46%
   6000  1932      410.0000   121      411.0000      409.1085   813724    0.46%
Elapsed time = 567.11 sec. (tree size = 17.88 MB, solutions = 7)
   6100  2030      410.0000   109      411.0000      409.1085   820062    0.46%
   6200  2119      410.0000    69      411.0000      409.1164   829941    0.46%
   6300  2215      410.0000   103      411.0000      409.1164   843290    0.46%
   6400  2300      410.0000   108      411.0000      409.1288   867894    0.46%
   6500  2389      410.0000   114      411.0000      409.1333   882176    0.45%
   6600  2489      410.0000   117      411.0000      409.1333   888505    0.45%
   6700  2580      410.0000    80      411.0000      409.1349   898507    0.45%
   6800  2671      410.0000    77      411.0000      409.1509   911348    0.45%
   6900  2769      410.0000    91      411.0000      409.1509   918925    0.45%
   7000  2854      410.0000    67      411.0000      409.1914   937276    0.44%
Elapsed time = 654.39 sec. (tree size = 28.54 MB, solutions = 7)
   7100  2952      410.0000   142      411.0000      409.1914   946593    0.44%
   7200  3032      410.0000    96      411.0000      410.0000   974096    0.24%
   7300  3122      410.0000   102      411.0000      410.0000   995270    0.24%
   7400  3210      410.0000    73      411.0000      410.0000  1011145    0.24%
   7500  3302    infeasible            411.0000      410.0000  1030224    0.24%
   7600  3396      410.0000   148      411.0000      410.0000  1048311    0.24%
   7700  3488      410.0000   121      411.0000      410.0000  1060363    0.24%
   7800  3576      410.0000    88      411.0000      410.0000  1077510    0.24%
   7900  3668      410.0000   132      411.0000      410.0000  1092123    0.24%
   8000  3762      410.0000   105      411.0000      410.0000  1108677    0.24%
Elapsed time = 778.64 sec. (tree size = 39.27 MB, solutions = 7)
   8100  3854      410.0000   108      411.0000      410.0000  1132104    0.24%
   8200  3944      410.0000    68      411.0000      410.0000  1148166    0.24%
   8300  4038    infeasible            411.0000      410.0000  1155949    0.24%
   8400  4136      410.0000   140      411.0000      410.0000  1167300    0.24%
   8500  4232      410.0000   100      411.0000      410.0000  1175511    0.24%
   8600  4320      410.0000   119      411.0000      410.0000  1200170    0.24%
   8700  4408      410.0000   150      411.0000      410.0000  1217534    0.24%
   8800  4498      410.0000   141      411.0000      410.0000  1236408    0.24%
   8900  4594      410.0000   130      411.0000      410.0000  1254568    0.24%
   9000  4680    infeasible            411.0000      410.0000  1281216    0.24%
Elapsed time = 921.23 sec. (tree size = 50.50 MB, solutions = 7)
   9100  4773      410.0000   105      411.0000      410.0000  1300136    0.24%
   9200  4867      410.0000   114      411.0000      410.0000  1315822    0.24%
   9300  4959      410.0000   112      411.0000      410.0000  1339696    0.24%
   9400  5053      410.0000   130      411.0000      410.0000  1364213    0.24%
   9500  5147      410.0000    97      411.0000      410.0000  1385818    0.24%
   9600  5239      410.0000   129      411.0000      410.0000  1407527    0.24%
   9700  5335      410.0000   133      411.0000      410.0000  1420313    0.24%
   9800  5425      410.0000   120      411.0000      410.0000  1435709    0.24%
   9900  5517      410.0000   136      411.0000      410.0000  1453098    0.24%
  10000  5607      410.0000   133      411.0000      410.0000  1485186    0.24%
Elapsed time = 1091.03 sec. (tree size = 62.41 MB, solutions = 7)
  10100  5696      410.0000    98      411.0000      410.0000  1514533    0.24%
  10200  5788      410.0000   111      411.0000      410.0000  1531934    0.24%
  10300  5868      410.0000    90      411.0000      410.0000  1557734    0.24%
  10400  5958    infeasible            411.0000      410.0000  1582978    0.24%
  10500  6050      410.0000   148      411.0000      410.0000  1604258    0.24%
  10600  6138      410.0000   100      411.0000      410.0000  1631037    0.24%
  10700  6232      410.0000   138      411.0000      410.0000  1653239    0.24%
  10800  6324    infeasible            411.0000      410.0000  1676391    0.24%
  10900  6416      410.0000   153      411.0000      410.0000  1701357    0.24%
  11000  6508      410.0000   139      411.0000      410.0000  1730455    0.24%
Elapsed time = 1316.70 sec. (tree size = 74.53 MB, solutions = 7)
  11100  6599      410.0000   118      411.0000      410.0000  1747326    0.24%
  11200  6693      410.0000   138      411.0000      410.0000  1769185    0.24%
  11300  6785      410.0000   139      411.0000      410.0000  1792541    0.24%
  11400  6881      410.0000   158      411.0000      410.0000  1816623    0.24%
  11500  6965      410.0000   125      411.0000      410.0000  1847259    0.24%
  11600  7051      410.0000   145      411.0000      410.0000  1870310    0.24%
  11700  7145      410.0000   126      411.0000      410.0000  1889926    0.24%
  11800  7237      410.0000   133      411.0000      410.0000  1911792    0.24%
  11900  7327      410.0000   125      411.0000      410.0000  1939533    0.24%
  12000  7419      410.0000    97      411.0000      410.0000  1952454    0.24%
Elapsed time = 1515.20 sec. (tree size = 87.54 MB, solutions = 7)
  12100  7515      410.0000   137      411.0000      410.0000  1971288    0.24%
  12200  7607      410.0000   134      411.0000      410.0000  1991839    0.24%
  12300  7699      410.0000   150      411.0000      410.0000  2025187    0.24%
  12400  7785      410.0000   144      411.0000      410.0000  2074599    0.24%
  12500  7869      410.0000   125      411.0000      410.0000  2105191    0.24%
  12600  7963      410.0000   141      411.0000      410.0000  2130123    0.24%
  12700  8059      410.0000    79      411.0000      410.0000  2151216    0.24%
  12800  8153      410.0000   108      411.0000      410.0000  2173401    0.24%
  12900  8233      410.0000   128      411.0000      410.0000  2223835    0.24%
  13000  8321      410.0000   126      411.0000      410.0000  2258439    0.24%
Elapsed time = 1809.80 sec. (tree size = 101.21 MB, solutions = 7)
  13100  8421      410.0000   120      411.0000      410.0000  2280382    0.24%
  13200  8505      410.0000   141      411.0000      410.0000  2326947    0.24%
  13300  8597      410.0000   125      411.0000      410.0000  2353366    0.24%
  13400  8681    infeasible            411.0000      410.0000  2377306    0.24%
  13500  8779      410.0000   131      411.0000      410.0000  2406006    0.24%
  13600  8855      410.0000   172      411.0000      410.0000  2463523    0.24%
  13700  8939      410.0000   150      411.0000      410.0000  2520282    0.24%
  13800  9027      410.0000   170      411.0000      410.0000  2554327    0.24%
  13900  9113      410.0000   161      411.0000      410.0000  2593106    0.24%
  14000  9204      410.0000   167      411.0000      410.0000  2626040    0.24%
Elapsed time = 2152.31 sec. (tree size = 114.74 MB, solutions = 7)
  14100  9289      410.0000   145      411.0000      410.0000  2659311    0.24%
  14200  9375      410.0000   142      411.0000      410.0000  2712042    0.24%
  14300  9467      410.0000   124      411.0000      410.0000  2755169    0.24%
  14400  9557      410.0000   163      411.0000      410.0000  2780789    0.24%
  14500  9645      410.0000   165      411.0000      410.0000  2832950    0.24%
  14600  9739      410.0000   123      411.0000      410.0000  2864294    0.24%
  14700  9823      410.0000   127      411.0000      410.0000  2908622    0.24%
  14800  9905      410.0000   135      411.0000      410.0000  2941629    0.24%
  14900  9997      410.0000   167      411.0000      410.0000  2975165    0.24%
  15000 10091      410.0000   134      411.0000      410.0000  3010027    0.24%
Elapsed time = 2541.00 sec. (tree size = 129.23 MB, solutions = 7)
Nodefile size =  1.98 MB (1.54 MB after compression)
  15100 10183      410.0000   135      411.0000      410.0000  3070310    0.24%
  15200 10277      410.0000   151      411.0000      410.0000  3095078    0.24%
  15300 10367      410.0000   177      411.0000      410.0000  3148041    0.24%
  15400 10453      410.0000   170      411.0000      410.0000  3219331    0.24%
  15500 10543      410.0000   142      411.0000      410.0000  3271074    0.24%
  15600 10617    infeasible            411.0000      410.0000  3363271    0.24%
  15700 10703      410.0000   158      411.0000      410.0000  3422397    0.24%
  15800 10789      410.0000   167      411.0000      410.0000  3487453    0.24%
  15900 10867      410.0000   148      411.0000      410.0000  3593063    0.24%
  16000 10961      410.0000   139      411.0000      410.0000  3638070    0.24%
Elapsed time = 3196.81 sec. (tree size = 144.12 MB, solutions = 7)
Nodefile size = 16.88 MB (13.08 MB after compression)
  16100 11049      410.0000   154      411.0000      410.0000  3685293    0.24%
  16200 11133      410.0000   160      411.0000      410.0000  3735170    0.24%
  16300 11219      410.0000   136      411.0000      410.0000  3788841    0.24%
  16400 11301      410.0000   145      411.0000      410.0000  3881269    0.24%
  16500 11391      410.0000   144      411.0000      410.0000  3951711    0.24%
  16600 11481      410.0000   164      411.0000      410.0000  4013525    0.24%
  16700 11565      410.0000   173      411.0000      410.0000  4091232    0.24%
  16800 11637      410.0000   163      411.0000      410.0000  4204236    0.24%
  16900 11723      410.0000   120      411.0000      410.0000  4258615    0.24%
  17000 11803      410.0000   180      411.0000      410.0000  4335511    0.24%
Elapsed time = 3956.03 sec. (tree size = 159.55 MB, solutions = 7)
Nodefile size = 31.78 MB (25.32 MB after compression)
  17100 11895      410.0000   148      411.0000      410.0000  4405373    0.24%
  17200 11987      410.0000   106      411.0000      410.0000  4457401    0.24%
  17300 12073      410.0000   160      411.0000      410.0000  4514963    0.24%
  17400 12169      410.0000   158      411.0000      410.0000  4542559    0.24%
  17500 12262      410.0000   176      411.0000      410.0000  4583834    0.24%
  17600 12348      410.0000   184      411.0000      410.0000  4698521    0.24%
  17700 12426      410.0000   164      411.0000      410.0000  4779154    0.24%
  17800 12516      410.0000   147      411.0000      410.0000  4843961    0.24%
  17900 12604      410.0000   167      411.0000      410.0000  4933366    0.24%
  18000 12682      410.0000   211      411.0000      410.0000  5055392    0.24%
Elapsed time = 4805.11 sec. (tree size = 176.42 MB, solutions = 7)
Nodefile size = 48.60 MB (39.34 MB after compression)
  18100 12760      410.0000   167      411.0000      410.0000  5195284    0.24%
  18200 12834      410.0000   233      411.0000      410.0000  5321334    0.24%
  18300 12925      410.0000   170      411.0000      410.0000  5397914    0.24%
  18400 13013    infeasible            411.0000      410.0000  5459560    0.24%
  18500 13097      410.0000   170      411.0000      410.0000  5581618    0.24%
  18600 13181      410.0000   191      411.0000      410.0000  5696031    0.24%
  18700 13263      410.0000   164      411.0000      410.0000  5832185    0.24%
  18800 13343      410.0000   181      411.0000      410.0000  5927271    0.24%
  18900 13431      410.0000   151      411.0000      410.0000  6014310    0.24%
  19000 13521      410.0000   164      411.0000      410.0000  6094299    0.24%
Elapsed time = 6030.72 sec. (tree size = 193.72 MB, solutions = 7)
Nodefile size = 66.42 MB (54.77 MB after compression)
  19100 13601    infeasible            411.0000      410.0000  6190751    0.24%
  19200 13681      410.0000   192      411.0000      410.0000  6301408    0.24%
  19300 13769      410.0000   174      411.0000      410.0000  6364189    0.24%
  19400 13853      410.0000   172      411.0000      410.0000  6456469    0.24%
  19500 13921      410.0000   166      411.0000      410.0000  6674491    0.24%
  19600 13999      410.0000   122      411.0000      410.0000  6788022    0.24%
  19700 14087      410.0000   195      411.0000      410.0000  6842115    0.24%
  19800 14177      410.0000   140      411.0000      410.0000  6920932    0.24%
  19900 14269      410.0000   141      411.0000      410.0000  7000330    0.24%

Cover cuts applied:  1227
Mixed integer rounding cuts applied:  9
Gomory fractional cuts applied:  14

Solution pool: 7 solutions saved.

MIP - Time limit exceeded, integer feasible:  Objective = 4.1100000000e+002
Current MIP best bound = 4.1000000000e+002 (gap = 1, 0.24%)
Solution time = 7200.08 sec.  Iterations = 7052778  Nodes = 19909 (14271)


Incumbent solution
Variable Name           Solution Value
Cmax                        411.000000
X_1_14                        1.000000
X_2_50                        1.000000
X_3_2                         1.000000
X_4_36                        1.000000
X_5_49                        1.000000
X_6_11                        1.000000
X_7_48                        1.000000
X_8_19                        1.000000
X_9_40                        1.000000
X_10_45                       1.000000
X_11_13                       1.000000
X_12_14                       1.000000
X_13_2                        1.000000
X_14_17                       1.000000
X_15_44                       1.000000
X_16_38                       1.000000
X_17_28                       1.000000
X_18_29                       1.000000
X_19_13                       1.000000
X_20_22                       1.000000
X_21_9                        1.000000
X_22_47                       1.000000
X_23_4                        1.000000
X_24_35                       1.000000
X_25_15                       1.000000
X_26_47                       1.000000
X_27_1                        1.000000
X_28_35                       1.000000
X_29_5                        1.000000
X_30_15                       1.000000
X_31_27                       1.000000
X_32_43                       1.000000
X_33_46                       1.000000
X_34_1                        1.000000
X_35_25                       1.000000
X_36_18                       1.000000
X_37_34                       1.000000
X_38_34                       1.000000
X_39_28                       1.000000
X_40_21                       1.000000
X_41_46                       1.000000
X_42_6                        1.000000
X_43_50                       1.000000
X_44_42                       1.000000
X_45_3                        1.000000
X_46_16                       1.000000
X_47_3                        1.000000
X_48_3                        1.000000
X_49_11                       1.000000
X_50_5                        1.000000
X_51_4                        1.000000
X_52_8                        1.000000
X_53_5                        1.000000
X_54_43                       1.000000
X_55_25                       1.000000
X_56_39                       1.000000
X_57_12                       1.000000
X_58_41                       1.000000
X_59_3                        1.000000
X_60_9                        1.000000
X_61_15                       1.000000
X_62_20                       1.000000
X_63_36                       1.000000
X_64_42                       1.000000
X_65_19                       1.000000
X_66_50                       1.000000
X_67_30                       1.000000
X_68_7                        1.000000
X_69_14                       1.000000
X_70_50                       1.000000
X_71_18                       1.000000
X_72_17                       1.000000
X_73_25                       1.000000
X_74_20                       1.000000
X_75_12                       1.000000
X_76_29                       1.000000
X_77_29                       1.000000
X_78_1                        1.000000
X_79_38                       1.000000
X_80_14                       1.000000
X_81_9                        1.000000
X_82_43                       1.000000
X_83_32                       1.000000
X_84_37                       1.000000
X_85_21                       1.000000
X_86_24                       1.000000
X_87_22                       1.000000
X_88_21                       1.000000
X_89_48                       1.000000
X_90_12                       1.000000
X_91_34                       1.000000
X_92_10                       1.000000
X_93_8                        1.000000
X_94_5                        1.000000
X_95_37                       1.000000
X_96_11                       1.000000
X_97_43                       1.000000
X_98_34                       1.000000
X_99_26                       1.000000
X_100_6                       1.000000
X_101_41                      1.000000
X_102_23                      1.000000
X_103_11                      1.000000
X_104_17                      1.000000
X_105_47                      1.000000
X_106_30                      1.000000
X_107_41                      1.000000
X_108_44                      1.000000
X_109_32                      1.000000
X_110_4                       1.000000
X_111_33                      1.000000
X_112_6                       1.000000
X_113_7                       1.000000
X_114_37                      1.000000
X_115_40                      1.000000
X_116_37                      1.000000
X_117_28                      1.000000
X_118_23                      1.000000
X_119_45                      1.000000
X_120_1                       1.000000
X_121_40                      1.000000
X_122_46                      1.000000
X_123_21                      1.000000
X_124_2                       1.000000
X_125_27                      1.000000
X_126_27                      1.000000
X_127_22                      1.000000
X_128_39                      1.000000
X_129_12                      1.000000
X_130_33                      1.000000
X_131_10                      1.000000
X_132_44                      1.000000
X_133_24                      1.000000
X_134_32                      1.000000
X_135_10                      1.000000
X_136_35                      1.000000
X_137_38                      1.000000
X_138_35                      1.000000
X_139_2                       1.000000
X_140_13                      1.000000
X_141_44                      1.000000
X_142_40                      1.000000
X_143_26                      1.000000
X_144_45                      1.000000
X_145_30                      1.000000
X_146_42                      1.000000
X_147_31                      1.000000
X_148_16                      1.000000
X_149_47                      1.000000
X_150_17                      1.000000
X_151_19                      1.000000
X_152_30                      1.000000
X_153_20                      1.000000
X_154_23                      1.000000
X_155_7                       1.000000
X_156_49                      1.000000
X_157_23                      1.000000
X_158_49                      1.000000
X_159_46                      1.000000
X_160_15                      1.000000
X_161_38                      1.000000
X_162_39                      1.000000
X_163_29                      1.000000
X_164_42                      1.000000
X_165_48                      1.000000
X_166_25                      1.000000
X_167_28                      1.000000
X_168_26                      1.000000
X_169_31                      1.000000
X_170_24                      1.000000
X_171_36                      1.000000
X_172_27                      1.000000
X_173_19                      1.000000
X_174_18                      1.000000
X_175_7                       1.000000
X_176_16                      1.000000
X_177_36                      1.000000
X_178_24                      1.000000
X_179_48                      1.000000
X_180_31                      1.000000
X_181_8                       1.000000
X_182_18                      1.000000
X_183_10                      1.000000
X_184_41                      1.000000
X_185_33                      1.000000
X_186_45                      1.000000
X_187_8                       1.000000
X_188_16                      1.000000
X_189_6                       1.000000
X_190_31                      1.000000
X_191_33                      1.000000
X_192_20                      1.000000
X_193_49                      1.000000
X_194_26                      1.000000
X_195_32                      1.000000
X_196_13                      1.000000
X_197_22                      1.000000
X_198_39                      1.000000
X_199_9                       1.000000
X_200_4                       1.000000
All other variables in the range 1-10001 are 0.
